% File represents an instance of a Composite Structure problem to be solved by a CP framework
% Created on 2025-03-26 10:41:20.197
T = 50;
n = 9;
m = 12;
edges = [(1, 2),
(4, 5),
(7, 8),
(2, 3),
(5, 6),
(8, 9),
(4, 1),
(7, 4),
(2, 5),
(8, 5),
(3, 6),
(9, 6)];
counts = [|4, 20, 4, 18,
|4, 18, 4, 18,
|2, 18, 2, 18,
|4, 20, 4, 20,
|4, 18, 4, 16,
|2, 18, 2, 16,
|4, 22, 4, 20,
|4, 22, 4, 16,
|4, 18, 4, 16|];
